15
782 62 882 166 215 268 736 408 903 746 514 874 428 964 919
44 437 894 718 896 848 153 626 132 490 116 830 214 189 383
333 772 319 428 981 513 625 16 189 919 788 656 964 49 243
519 884 303 77 479 504 384 1 630 81 827 320 403 847 759
605 697 718 756 744 619 303 409 115 568 777 848 500 242 255
662 789 361 851 807 992 126 819 58 879 76 660 536 435 153
589 955 363 22 181 245 304 923 942 222 774 87 820 499 318
390 289 963 50 428 971 915 224 904 569 396 554 397 914 403
525 189 846 82 353 887 257 894 296 267 541 153 963 451 798
392 409 556 516 263 817 141 629 507 627 832 434 552 906 750
787 92 932 672 492 484 197 379 642 503 208 452 353 464 8
100 584 263 758 909 464 705 780 718 368 839 17 28 636 973
478 90 615 876 353 473 943 106 255 611 728 856 112 221 876
556 973 500 281 760 773 721 667 35 969 399 892 991 492 324
17 170 623 855 967 849 604 801 158 490 625 951 68 721 663